c is-sat
p cnf 8 54
-4 -1 -2 0
2 1 -7 0
-1 -4 -8 0
4 3 -7 0
-3 -6 4 0
-5 -3 7 0
-8 -7 -1 0
-4 -5 2 0
8 -7 -5 0
5 8 -2 0
-2 -5 -1 0
5 -1 -8 0
-4 -7 -6 0
-3 -7 -8 0
8 6 -2 0
-8 -4 -6 0
-1 -8 4 0
-6 4 -7 0
7 -4 -8 0
-5 2 -1 0
8 -7 -2 0
-7 -3 -6 0
-2 -3 -1 0
-1 4 2 0
-7 -1 -2 0
-2 -6 7 0
-7 -8 -3 0
-6 1 -2 0
-7 -2 -8 0
2 -8 -6 0
-3 -6 -8 0
-6 7 -3 0
-2 4 -7 0
-6 4 -7 0
-1 -5 -4 0
4 6 1 0
-7 -6 4 0
-5 -1 -4 0
-6 4 -3 0
-3 -5 7 0
-6 -4 -7 0
-3 -8 -7 0
-5 1 -7 0
3 -7 -5 0
-4 -7 -6 0
-4 -3 -1 0
6 -3 -4 0
-3 -6 -4 0
-5 4 6 0
6 -1 -4 0
-6 5 -2 0
-5 -1 -2 0
-7 4 -1 0
-3 -5 -1 0
